(set-logic QF_S)
(declare-fun var0 () String)
(declare-fun var1 () String)
(declare-fun var2 () String)
(declare-fun var3 () String)
(declare-fun var4 () String)
(declare-fun var5 () String)
(declare-fun var6 () String)
(declare-fun var7 () String)
(declare-fun var8 () String)
(declare-fun var9 () String)
(declare-fun var10 () String)
(declare-fun var11 () String)
(declare-fun var12 () String)
(declare-fun var13 () String)
(declare-fun var14 () String)
(declare-fun var15 () String)
(declare-fun var16 () String)
(declare-fun var17 () String)
(declare-fun var18 () String)
(declare-fun var19 () String)
(declare-fun var20 () String)
(declare-fun var21 () String)
(declare-fun var22 () String)
(declare-fun var23 () String)
(declare-fun var24 () String)
(declare-fun var25 () String)
(declare-fun var26 () String)
(declare-fun var27 () String)
(declare-fun var28 () String)
(declare-fun var29 () String)
(declare-fun var30 () String)
(declare-fun var31 () String)
(declare-fun var32 () String)
(declare-fun var33 () String)
(declare-fun var34 () String)
(declare-fun var35 () String)
(declare-fun var36 () String)
(declare-fun var37 () String)
(declare-fun var38 () String)
(declare-fun var39 () String)
(declare-fun var40 () String)
(declare-fun var41 () String)
(declare-fun var42 () String)
(declare-fun var43 () String)
(declare-fun var44 () String)
(declare-fun var45 () String)
(declare-fun var46 () String)
(declare-fun var47 () String)
(declare-fun var48 () String)
(declare-fun var49 () String)
(declare-fun var50 () String)
(declare-fun var51 () String)
(declare-fun var52 () String)
(declare-fun var53 () String)
(declare-fun var54 () String)
(declare-fun var55 () String)
(declare-fun var56 () String)
(declare-fun var57 () String)
(declare-fun var58 () String)
(declare-fun var59 () String)
(declare-fun var60 () String)
(assert (= var0 (str.++ var1 var2)))
(assert (= var2 (str.++ var3 var4)))
(assert (= var4 (str.++ var5 var6)))
(assert (= var6 (str.++ var7 var8)))
(assert (= var8 (str.++ var9 var10)))
(assert (= var10 (str.++ var11 var12)))
(assert (= var12 (str.++ var13 var14)))
(assert (= var14 (str.++ var15 var16)))
(assert (= var16 (str.++ var17 var18)))
(assert (= var18 (str.++ var19 var20)))
(assert (= var20 (str.++ var21 var22)))
(assert (= var22 (str.++ var23 var24)))
(assert (= var24 (str.++ var25 var26)))
(assert (= var26 (str.++ var27 var28)))
(assert (= var28 (str.++ var29 var30)))
(assert (= var30 (str.++ var31 var32)))
(assert (= var32 (str.++ var33 var34)))
(assert (= var34 (str.++ var35 var36)))
(assert (= var36 (str.++ var37 var38)))
(assert (= var38 (str.++ var39 var40)))
(assert (= var40 (str.++ var41 var42)))
(assert (= var42 (str.++ var43 var44)))
(assert (= var44 (str.++ var45 var46)))
(assert (= var46 (str.++ var47 var48)))
(assert (= var48 (str.++ var49 var50)))
(assert (= var50 (str.++ var51 var52)))
(assert (= var52 (str.++ var53 var54)))
(assert (= var54 (str.++ var55 var56)))
(assert (= var56 (str.++ var57 var58)))
(assert (= var58 (str.++ var59 var60)))
(assert (= var0 "solution"))
(assert (= "}" (str.at var22 35)))
(assert (= "?" (str.at var18 851)))
(assert (= "i" (str.at var24 18)))
(assert (= "2" (str.at var22 455)))
(assert (= "0" (str.at var23 208)))
(assert (= ";" (str.at var17 641)))
(assert (= "y" (str.at var4 773)))
(assert (= "H" (str.at var37 839)))
(assert (= "-" (str.at var41 968)))
(assert (= "[" (str.at var31 242)))
(assert (= "%" (str.at var42 849)))
(assert (= "*" (str.at var16 317)))
(assert (= ")" (str.at var34 327)))
(assert (= "s" (str.at var49 75)))
(assert (= "E" (str.at var8 229)))
(assert (= "2" (str.at var49 780)))
(assert (= "E" (str.at var56 70)))
(assert (= ")" (str.at var30 291)))
(assert (= "{" (str.at var1 760)))
(assert (= "f" (str.at var20 859)))
(assert (= "#" (str.at var53 117)))
(assert (= "~" (str.at var4 761)))
(assert (= "W" (str.at var56 657)))
(assert (= "=" (str.at var40 373)))
(assert (= "T" (str.at var14 62)))
(assert (= "{" (str.at var56 556)))
(assert (= "+" (str.at var60 716)))
(assert (= "J" (str.at var56 482)))
(assert (= "T" (str.at var31 748)))
(assert (= "J" (str.at var4 7)))
(assert (= "y" (str.at var59 72)))
(assert (= "?" (str.at var27 87)))
(assert (= "j" (str.at var40 367)))
(assert (= "#" (str.at var38 966)))
(assert (= "," (str.at var16 763)))
(assert (= ">" (str.at var2 101)))
(assert (= "K" (str.at var13 97)))
(assert (= "a" (str.at var50 617)))
(assert (= "e" (str.at var33 979)))
(assert (= "Y" (str.at var15 768)))
(assert (= "K" (str.at var10 996)))
(assert (= "J" (str.at var13 349)))
(assert (= "$" (str.at var8 810)))
(assert (= "X" (str.at var49 307)))
(assert (= "&" (str.at var49 26)))
(assert (= ">" (str.at var47 974)))
(assert (= "@" (str.at var18 996)))
(assert (= "!" (str.at var25 708)))
(assert (= "i" (str.at var25 413)))
(assert (= "4" (str.at var25 371)))
(assert (= "'" (str.at var18 509)))
(assert (= "}" (str.at var20 196)))
(assert (= "Q" (str.at var49 56)))
(assert (= "f" (str.at var39 874)))
(assert (= "M" (str.at var7 987)))
(assert (= "/" (str.at var41 208)))
(assert (= "0" (str.at var8 274)))
(assert (= "J" (str.at var43 593)))
(assert (= "2" (str.at var15 214)))
(assert (= "`" (str.at var3 247)))
(assert (= "G" (str.at var21 572)))
(assert (= "~" (str.at var26 866)))
(assert (= "N" (str.at var44 820)))
(assert (= "z" (str.at var27 218)))
(assert (= "x" (str.at var40 991)))
(assert (= "y" (str.at var57 27)))
(assert (= "Y" (str.at var15 297)))
(assert (= "N" (str.at var48 255)))
(assert (= "i" (str.at var8 190)))
(assert (= "x" (str.at var30 745)))
(assert (= "#" (str.at var16 274)))
(assert (= "V" (str.at var21 498)))
(assert (= "#" (str.at var3 385)))
(assert (= "t" (str.at var40 675)))
(assert (= "z" (str.at var32 863)))
(assert (= "C" (str.at var24 45)))
(assert (= "k" (str.at var44 306)))
(assert (= "X" (str.at var48 239)))
(assert (= """" (str.at var50 926)))
(assert (= "3" (str.at var18 297)))
(assert (= "j" (str.at var31 723)))
(assert (= "E" (str.at var25 110)))
(assert (= "Z" (str.at var29 250)))
(assert (= "o" (str.at var7 813)))
(assert (= "N" (str.at var7 652)))
(assert (= "J" (str.at var56 711)))
(assert (= "o" (str.at var34 503)))
(assert (= "p" (str.at var31 753)))
(assert (= "8" (str.at var59 489)))
(assert (= "f" (str.at var58 690)))
(assert (= "i" (str.at var51 984)))
(assert (= "n" (str.at var5 215)))
(assert (= "S" (str.at var51 172)))
(assert (= "j" (str.at var48 129)))
(assert (= "U" (str.at var11 117)))
(assert (= "p" (str.at var0 318)))
(assert (= "[" (str.at var51 134)))
(assert (= "T" (str.at var38 672)))
(assert (= "5" (str.at var15 343)))
(assert (= "R" (str.at var30 101)))
(assert (= "`" (str.at var47 113)))
(assert (= "H" (str.at var17 706)))
(assert (= "O" (str.at var18 625)))
(assert (= "t" (str.at var28 513)))
(assert (= """" (str.at var44 243)))
(assert (= "9" (str.at var12 786)))
(assert (= "$" (str.at var59 382)))
(assert (= "\\" (str.at var47 930)))
(assert (= "." (str.at var55 237)))
(assert (= "q" (str.at var32 310)))
(assert (= "+" (str.at var44 744)))
(assert (= "0" (str.at var35 961)))
(assert (= "M" (str.at var7 526)))
(assert (= "A" (str.at var36 956)))
(assert (= "9" (str.at var24 113)))
(assert (= "^" (str.at var25 374)))
(assert (= "+" (str.at var26 465)))
(assert (= "w" (str.at var42 510)))
(assert (= "9" (str.at var20 809)))
(assert (= "Y" (str.at var60 609)))
(assert (= "\\" (str.at var5 470)))
(assert (= "1" (str.at var56 421)))
(assert (= "o" (str.at var35 908)))
(assert (= "x" (str.at var1 543)))
(assert (= "1" (str.at var36 85)))
(assert (= ">" (str.at var26 975)))
(assert (= "y" (str.at var15 494)))
(assert (= "8" (str.at var32 9)))
(assert (= "S" (str.at var24 297)))
(assert (= "c" (str.at var29 783)))
(assert (= "/" (str.at var29 20)))
(assert (= "]" (str.at var30 638)))
(assert (= "=" (str.at var35 523)))
(assert (= "F" (str.at var60 142)))
(assert (= "5" (str.at var58 532)))
(assert (= "N" (str.at var34 348)))
(assert (= "u" (str.at var48 808)))
(assert (= "W" (str.at var31 238)))
(assert (= "V" (str.at var31 93)))
(assert (= "F" (str.at var44 126)))
(assert (= "L" (str.at var47 694)))
(assert (= "." (str.at var43 124)))
(assert (= "t" (str.at var10 426)))
(assert (= "q" (str.at var43 469)))
(assert (= "a" (str.at var25 426)))
(assert (= "I" (str.at var54 856)))
(assert (= "_" (str.at var55 206)))
(assert (= "d" (str.at var30 813)))
(assert (= ")" (str.at var7 520)))
(assert (= "<" (str.at var34 37)))
(assert (= "~" (str.at var34 661)))
(assert (= "l" (str.at var60 685)))
(assert (= "!" (str.at var4 660)))
(assert (= "," (str.at var49 596)))
(assert (= "g" (str.at var51 947)))
(assert (= "S" (str.at var7 593)))
(assert (= "3" (str.at var5 664)))
(assert (= "M" (str.at var18 810)))
(assert (= "x" (str.at var44 107)))
(assert (= "#" (str.at var7 264)))
(assert (= "m" (str.at var33 327)))
(assert (= "I" (str.at var34 573)))
(assert (= "l" (str.at var21 598)))
(assert (= ";" (str.at var16 648)))
(assert (= "i" (str.at var10 595)))
(assert (= "^" (str.at var34 680)))
(assert (= "`" (str.at var17 235)))
(assert (= "+" (str.at var14 608)))
(assert (= "B" (str.at var25 328)))
(assert (= ")" (str.at var60 852)))
(assert (= "-" (str.at var20 791)))
(assert (= "[" (str.at var11 361)))
(assert (= "-" (str.at var8 138)))
(assert (= "B" (str.at var10 168)))
(assert (= "D" (str.at var1 332)))
(assert (= "i" (str.at var11 731)))
(assert (= "%" (str.at var25 286)))
(assert (= "-" (str.at var12 846)))
(assert (= ")" (str.at var54 363)))
(assert (= "#" (str.at var30 984)))
(assert (= "1" (str.at var50 259)))
(assert (= "|" (str.at var43 370)))
(assert (= "q" (str.at var5 282)))
(assert (= "Q" (str.at var26 767)))
(assert (= "5" (str.at var38 185)))
(assert (= "k" (str.at var23 591)))
(assert (= "u" (str.at var34 941)))
(assert (= "j" (str.at var45 291)))
(assert (= "5" (str.at var18 393)))
(assert (= "y" (str.at var53 93)))
(assert (= "f" (str.at var42 212)))
(assert (= "k" (str.at var57 11)))
(assert (= "Z" (str.at var40 301)))
(assert (= "Q" (str.at var33 966)))
(assert (= "o" (str.at var28 276)))
(assert (= ">" (str.at var52 81)))
(assert (= "w" (str.at var57 873)))
(assert (= "G" (str.at var48 795)))
(assert (= "?" (str.at var23 380)))
(assert (= "B" (str.at var34 208)))
(assert (= "P" (str.at var40 303)))
(assert (= "1" (str.at var18 469)))
(assert (= "c" (str.at var37 501)))
(assert (= "P" (str.at var27 715)))
(assert (= "!" (str.at var58 4)))
(assert (= "8" (str.at var52 798)))
(assert (= "@" (str.at var33 79)))
(assert (= "p" (str.at var15 651)))
(assert (= "{" (str.at var22 43)))
(assert (= "W" (str.at var43 481)))
(assert (= "s" (str.at var17 330)))
(assert (= "o" (str.at var33 275)))
(assert (= "}" (str.at var2 682)))
(assert (= "i" (str.at var31 154)))
(assert (= """" (str.at var0 498)))
(assert (= "j" (str.at var52 200)))
(assert (= "2" (str.at var48 188)))
(assert (= "*" (str.at var55 498)))
(assert (= "S" (str.at var30 920)))
(assert (= "8" (str.at var31 390)))
(assert (= "K" (str.at var1 646)))
(assert (= "F" (str.at var11 190)))
(assert (= "s" (str.at var39 24)))
(assert (= "U" (str.at var35 531)))
(assert (= "m" (str.at var34 403)))
(assert (= "'" (str.at var46 758)))
(assert (= "N" (str.at var23 213)))
(assert (= "(" (str.at var2 25)))
(assert (= "r" (str.at var1 248)))
(assert (= "~" (str.at var56 100)))
(assert (= "D" (str.at var31 548)))
(assert (= "*" (str.at var35 600)))
(assert (= "=" (str.at var56 998)))
(assert (= "x" (str.at var8 752)))
(assert (= "o" (str.at var34 567)))
(assert (= "}" (str.at var52 477)))
(assert (= "=" (str.at var42 771)))
(assert (= "J" (str.at var33 985)))
(assert (= "," (str.at var48 702)))
(assert (= "@" (str.at var17 155)))
(assert (= "1" (str.at var14 707)))
(assert (= "i" (str.at var1 761)))
(assert (= "@" (str.at var38 942)))
(assert (= "1" (str.at var13 798)))
(assert (= "?" (str.at var57 189)))
(assert (= "." (str.at var15 777)))
(assert (= "w" (str.at var29 25)))
(assert (= "Q" (str.at var52 851)))
(assert (= "b" (str.at var26 481)))
(assert (= "a" (str.at var59 474)))
(assert (= "9" (str.at var10 861)))
(assert (= "x" (str.at var19 374)))
(assert (= "#" (str.at var60 267)))
(assert (= "x" (str.at var31 233)))
(assert (= "k" (str.at var3 920)))
(assert (= "V" (str.at var31 3)))
(assert (= "A" (str.at var59 827)))
(assert (= "b" (str.at var58 931)))
(assert (= "Y" (str.at var50 306)))
(assert (= "*" (str.at var56 922)))
(assert (= "9" (str.at var17 574)))
(assert (= "o" (str.at var15 328)))
(assert (= "7" (str.at var19 397)))
(assert (= "6" (str.at var52 737)))
(assert (= "^" (str.at var55 386)))
(assert (= "E" (str.at var33 53)))
(assert (= "{" (str.at var52 327)))
(assert (= "r" (str.at var38 978)))
(assert (= "A" (str.at var46 272)))
(assert (= "1" (str.at var57 336)))
(assert (= "=" (str.at var26 197)))
(assert (= "Y" (str.at var35 109)))
(assert (= "0" (str.at var47 21)))
(assert (= "P" (str.at var12 938)))
(assert (= "w" (str.at var53 511)))
(assert (= "T" (str.at var23 45)))
(assert (= "5" (str.at var41 108)))
(assert (= "O" (str.at var53 0)))
(assert (= "^" (str.at var7 630)))
(assert (= "P" (str.at var36 234)))
(assert (= "v" (str.at var13 637)))
(assert (= "Y" (str.at var28 149)))
(assert (= "h" (str.at var17 962)))
(assert (= "(" (str.at var31 36)))
(assert (= "^" (str.at var13 821)))
(assert (= "v" (str.at var5 792)))
(assert (= "9" (str.at var40 81)))
(assert (= "=" (str.at var58 517)))
(assert (= "{" (str.at var9 920)))
(assert (= "k" (str.at var2 540)))
(assert (= "~" (str.at var27 814)))
(assert (= "!" (str.at var55 123)))
(assert (= "O" (str.at var5 407)))
(assert (= "}" (str.at var49 528)))
(assert (= "@" (str.at var30 221)))
(assert (= "=" (str.at var27 966)))
(assert (= ";" (str.at var12 700)))
(assert (= "K" (str.at var34 306)))
(assert (= "h" (str.at var19 78)))
(assert (= "q" (str.at var19 923)))
(assert (= "q" (str.at var46 87)))
(assert (= "9" (str.at var20 961)))
(assert (= "*" (str.at var1 814)))
(assert (= "M" (str.at var35 131)))
(assert (= "~" (str.at var29 415)))
(assert (= "|" (str.at var23 685)))
(assert (= "?" (str.at var18 387)))
(assert (= "O" (str.at var43 64)))
(assert (= "w" (str.at var13 378)))
(assert (= "j" (str.at var15 972)))
(assert (= "*" (str.at var16 745)))
(assert (= "M" (str.at var55 730)))
(assert (= ":" (str.at var0 930)))
(assert (= "\\" (str.at var9 773)))
(assert (= "k" (str.at var10 773)))
(assert (= "m" (str.at var15 639)))
(assert (= "{" (str.at var52 74)))
(assert (= "v" (str.at var20 138)))
(assert (= "`" (str.at var25 86)))
(assert (= "(" (str.at var56 787)))
(assert (= "H" (str.at var48 471)))
(assert (= "u" (str.at var36 692)))
(assert (= "~" (str.at var32 767)))
(assert (= "j" (str.at var51 483)))
(assert (= "z" (str.at var17 465)))
(assert (= "e" (str.at var20 855)))
(assert (= "Z" (str.at var54 489)))
(assert (= "4" (str.at var16 319)))
(assert (= "o" (str.at var2 195)))
(assert (= "v" (str.at var16 460)))
(assert (= "#" (str.at var31 7)))
(assert (= "0" (str.at var15 592)))
(assert (= "t" (str.at var37 917)))
(assert (= "'" (str.at var10 221)))
(assert (= "6" (str.at var9 184)))
(assert (= "q" (str.at var58 830)))
(assert (= "x" (str.at var26 334)))
(assert (= "(" (str.at var59 285)))
(assert (= "^" (str.at var32 751)))
(assert (= "g" (str.at var36 37)))
(assert (= "4" (str.at var44 536)))
(assert (= "Y" (str.at var11 599)))
(assert (= "G" (str.at var40 970)))
(assert (= "`" (str.at var7 29)))
(assert (= "U" (str.at var19 860)))
(assert (= "G" (str.at var21 373)))
(assert (= "i" (str.at var55 947)))
(assert (= "$" (str.at var52 636)))
(assert (= "@" (str.at var1 92)))
(assert (= "X" (str.at var24 783)))
(assert (= "!" (str.at var46 306)))
(assert (= "8" (str.at var15 820)))
(assert (= "1" (str.at var51 444)))
(assert (= "a" (str.at var32 404)))
(assert (= "P" (str.at var34 194)))
(assert (= "Y" (str.at var16 805)))
(assert (= "]" (str.at var7 342)))
(assert (= "[" (str.at var28 784)))
(assert (= "q" (str.at var9 421)))
(assert (= "l" (str.at var23 842)))
(assert (= "k" (str.at var59 46)))
(assert (= "[" (str.at var55 953)))
(assert (= "I" (str.at var47 248)))
(assert (= "m" (str.at var52 607)))
(assert (= "3" (str.at var55 788)))
(assert (= "*" (str.at var40 942)))
(assert (= "9" (str.at var43 466)))
(assert (= ";" (str.at var31 529)))
(assert (= "w" (str.at var40 246)))
(assert (= "#" (str.at var3 426)))
(assert (= "5" (str.at var23 616)))
(assert (= "X" (str.at var18 5)))
(assert (= "2" (str.at var47 850)))
(assert (= "j" (str.at var50 836)))
(assert (= "F" (str.at var14 978)))
(assert (= "x" (str.at var12 310)))
(assert (= "F" (str.at var29 480)))
(assert (= "`" (str.at var51 457)))
(assert (= "<" (str.at var21 315)))
(assert (= "n" (str.at var59 403)))
(assert (= "V" (str.at var36 99)))
(assert (= "7" (str.at var4 641)))
(assert (= "1" (str.at var43 530)))
(assert (= "t" (str.at var43 643)))
(assert (= "T" (str.at var5 810)))
(assert (= "%" (str.at var49 543)))
(assert (= "$" (str.at var14 40)))
(assert (= "3" (str.at var55 809)))
(assert (= "9" (str.at var17 813)))
(assert (= "r" (str.at var5 139)))
(assert (= "|" (str.at var42 669)))
(assert (= "I" (str.at var6 17)))
(assert (= "c" (str.at var1 996)))
(assert (= "@" (str.at var40 129)))
(assert (= "%" (str.at var12 321)))
(assert (= "/" (str.at var40 972)))
(assert (= "X" (str.at var13 173)))
(assert (= "q" (str.at var43 768)))
(assert (= "<" (str.at var31 740)))
(assert (= "N" (str.at var12 997)))
(assert (= "L" (str.at var31 775)))
(assert (= "F" (str.at var27 887)))
(assert (= "M" (str.at var24 504)))
(assert (= ";" (str.at var23 12)))
(assert (= "j" (str.at var55 585)))
(assert (= "A" (str.at var38 878)))
(assert (= "<" (str.at var14 213)))
(assert (= "<" (str.at var39 924)))
(assert (= "D" (str.at var34 632)))
(assert (= "P" (str.at var17 346)))
(assert (= "S" (str.at var17 131)))
(assert (= "x" (str.at var47 383)))
(assert (= "Q" (str.at var38 559)))
(assert (= "w" (str.at var56 715)))
(assert (= "I" (str.at var38 180)))
(assert (= "h" (str.at var14 487)))
(assert (= "%" (str.at var10 666)))
(assert (= "W" (str.at var34 311)))
(assert (= "V" (str.at var20 801)))
(assert (= "H" (str.at var3 790)))
(assert (= "o" (str.at var0 724)))
(assert (= "K" (str.at var40 901)))
(assert (= "K" (str.at var3 989)))
(assert (= "O" (str.at var52 940)))
(assert (= "y" (str.at var19 53)))
(assert (= "g" (str.at var44 887)))
(assert (= "!" (str.at var23 528)))
(assert (= "g" (str.at var53 751)))
(assert (= "7" (str.at var11 766)))
(assert (= "'" (str.at var50 121)))
(assert (= "E" (str.at var38 726)))
(assert (= "Z" (str.at var12 646)))
(assert (= "7" (str.at var42 347)))
(assert (= "Z" (str.at var1 598)))
(assert (= "k" (str.at var23 434)))
(assert (= "-" (str.at var43 165)))
(assert (= """" (str.at var60 485)))
(assert (= "+" (str.at var37 305)))
(assert (= "[" (str.at var32 853)))
(assert (= "f" (str.at var6 151)))
(assert (= ")" (str.at var59 99)))
(assert (= "0" (str.at var54 476)))
(assert (= "e" (str.at var17 452)))
(assert (= "g" (str.at var53 903)))
(assert (= "I" (str.at var36 928)))
(assert (= "S" (str.at var47 869)))
(assert (= "G" (str.at var22 906)))
(assert (= "&" (str.at var60 608)))
(assert (= "Y" (str.at var15 714)))
(assert (= "+" (str.at var55 343)))
(assert (= "Q" (str.at var12 693)))
(assert (= "i" (str.at var19 355)))
(assert (= "n" (str.at var15 253)))
(assert (= "_" (str.at var51 262)))
(assert (= "[" (str.at var29 850)))
(assert (= "m" (str.at var40 369)))
(assert (= "3" (str.at var55 614)))
(assert (= "9" (str.at var60 723)))
(assert (= ">" (str.at var29 817)))
(assert (= "&" (str.at var60 932)))
(assert (= "e" (str.at var53 297)))
(assert (= "z" (str.at var26 16)))
(assert (= "8" (str.at var25 569)))
(assert (= "c" (str.at var20 287)))
(assert (= "S" (str.at var51 542)))
(assert (= ")" (str.at var43 787)))
(assert (= "I" (str.at var49 58)))
(assert (= "-" (str.at var5 514)))
(assert (= "i" (str.at var28 371)))
(assert (= "2" (str.at var6 201)))
(assert (= "_" (str.at var53 180)))
(assert (= "K" (str.at var2 775)))
(assert (= "k" (str.at var50 758)))
(assert (= "#" (str.at var31 536)))
(assert (= "s" (str.at var23 456)))
(assert (= "z" (str.at var4 649)))
(assert (= "&" (str.at var0 719)))
(assert (= "B" (str.at var18 650)))
(assert (= "q" (str.at var12 611)))
(assert (= "g" (str.at var55 160)))
(assert (= "g" (str.at var58 838)))
(check-sat)
(get-model)